NAME : OMNETRUN
COMMENT : 524.61
TYPE : CVRP
DIMENSION : 21
EDGE_WEIGHT_TYPE : EUC_2D
CAPACITY : 21
NODE_COORD_SECTION
1 0.107093 -0.77924
2 210.102 -1051.77
3 232.877 -3495.69
4 208.23 -4714.25
5 110.056 -5071.26
6 288.892 -691.277
7 357.062 -1648.11
8 430.658 -2054.53
9 263.346 -3989.3
10 452.516 -4375.04
11 433.774 -5365.61
12 589.471 -906.613
13 502.091 -2785.65
14 634.861 -3125.86
15 560.931 -4744.62
16 820.258 -301.009
17 859.695 -1503.4
18 818.228 -2316.81
19 848.766 -3509.41
20 746.947 -4045.77
21 845.144 -4410.24
DEMAND_SECTION
1 0
2 1
3 1
4 1
5 1
6 1
7 1
8 1
9 1
10 1
11 1
12 1
13 1
14 1
15 1
16 1
17 1
18 1
19 1
20 1
21 1
DEPOT_SECTION
1
-1
EOF
